maximize
 - 1.0 y0  - 2.0 y1  - 4.0 y2  - 1.0 y3  - 1.0 y4 
subject to
 - 1.0 y0  - 1.0 y1  - 1.0 y2 =  -2.0 
 - 1.0 y3  - 1.0 y4 =  -1.0 

bounds
 y0 <=  +2.0 
 y1 <=  +1.0 
 y2 <=  +1.0 
 y3 <=  +1.0 
 y4 <=  +1.0 

binary

general
 y0  y1  y2  y3  y4 
end